NAME: ETSP
COMMENT: Generated by write_TSPLIB (R package TSP)
TYPE: TSP
DIMENSION: 100
EDGE_WEIGHT_TYPE: EUC_2D
NODE_COORD_SECTION
1 4.542000e+00 3.836200e+01
2 4.542000e+00 7.617900e+01
3 1.000000e+01 1.000000e+01
4 1.000000e+01 2.890800e+01
5 1.000000e+01 4.781600e+01
6 1.000000e+01 6.672500e+01
7 1.000000e+01 8.563300e+01
8 1.000000e+01 1.045410e+02
9 1.545800e+01 5.727100e+01
10 1.545800e+01 7.617900e+01
11 1.545800e+01 9.508700e+01
12 1.545800e+01 1.139950e+02
13 2.091700e+01 1.000000e+01
14 2.091700e+01 6.672500e+01
15 2.091700e+01 8.563300e+01
16 2.637500e+01 5.727100e+01
17 2.637500e+01 7.617900e+01
18 2.637500e+01 9.508700e+01
19 3.183300e+01 2.890800e+01
20 3.183300e+01 6.672500e+01
21 3.183300e+01 8.563300e+01
22 3.183300e+01 1.045410e+02
23 3.729200e+01 5.727100e+01
24 3.729200e+01 7.617900e+01
25 3.729200e+01 9.508700e+01
26 3.729200e+01 1.139950e+02
27 4.275000e+01 2.890800e+01
28 4.275000e+01 6.672500e+01
29 4.275000e+01 1.045410e+02
30 4.820800e+01 3.836200e+01
31 4.820800e+01 5.727100e+01
32 4.820800e+01 7.617900e+01
33 4.820800e+01 9.508700e+01
34 4.820800e+01 1.139950e+02
35 5.366700e+01 2.890800e+01
36 5.366700e+01 6.672500e+01
37 5.366700e+01 8.563300e+01
38 5.366700e+01 1.045410e+02
39 5.912500e+01 3.836200e+01
40 5.912500e+01 5.727100e+01
41 5.912500e+01 9.508700e+01
42 5.912500e+01 1.139950e+02
43 6.458300e+01 1.000000e+01
44 6.458300e+01 2.890800e+01
45 6.458300e+01 4.781600e+01
46 6.458300e+01 6.672500e+01
47 6.458300e+01 1.045410e+02
48 7.004200e+01 1.945400e+01
49 7.004200e+01 3.836200e+01
50 7.004200e+01 5.727100e+01
51 7.004200e+01 9.508700e+01
52 7.004200e+01 1.139950e+02
53 7.550000e+01 1.000000e+01
54 7.550000e+01 2.890800e+01
55 7.550000e+01 4.781600e+01
56 7.550000e+01 6.672500e+01
57 7.550000e+01 8.563300e+01
58 7.550000e+01 1.045410e+02
59 8.095800e+01 1.945400e+01
60 8.095800e+01 3.836200e+01
61 8.095800e+01 5.727100e+01
62 8.095800e+01 7.617900e+01
63 8.095800e+01 9.508700e+01
64 8.641700e+01 1.000000e+01
65 8.641700e+01 2.890800e+01
66 8.641700e+01 4.781600e+01
67 8.641700e+01 6.672500e+01
68 8.641700e+01 8.563300e+01
69 8.641700e+01 1.045410e+02
70 9.187500e+01 3.836200e+01
71 9.187500e+01 5.727100e+01
72 9.187500e+01 9.508700e+01
73 9.187500e+01 1.139950e+02
74 9.733300e+01 1.000000e+01
75 9.733300e+01 2.890800e+01
76 9.733300e+01 4.781600e+01
77 9.733300e+01 6.672500e+01
78 9.733300e+01 1.045410e+02
79 1.027920e+02 1.945400e+01
80 1.027920e+02 3.836200e+01
81 1.027920e+02 5.727100e+01
82 1.027920e+02 7.617900e+01
83 1.027920e+02 1.139950e+02
84 1.082500e+02 1.000000e+01
85 1.082500e+02 6.672500e+01
86 1.082500e+02 8.563300e+01
87 1.082500e+02 1.045410e+02
88 1.137080e+02 1.945400e+01
89 1.137080e+02 3.836200e+01
90 1.137080e+02 5.727100e+01
91 1.191670e+02 2.890800e+01
92 1.191670e+02 6.672500e+01
93 1.191670e+02 8.563300e+01
94 1.191670e+02 1.045410e+02
95 1.246250e+02 5.727100e+01
96 1.246250e+02 9.508700e+01
97 1.246250e+02 1.139950e+02
98 1.300830e+02 2.890800e+01
99 1.300830e+02 4.781600e+01
100 1.300830e+02 6.672500e+01
EOF
